32	0

0	1	2
9	1	3
4	1	4
5	2	5	6
6	1	7
10	1	7
4	2	8	10
5	1	9
4	1	11
7	1	11
3	1	12
4	2	13	14
5	2	15	17
5	2	15	17
2	1	16
3	1	18
10	2	19	20
5	2	19	20
10	2	21	22
5	2	21	22
8	2	23	24
5	2	23	24
5	1	25
3	1	25
1	1	26
4	1	27
1	2	28	29
2	1	30
9	1	30
8	1	31
6	1	32
0	0
